networks/zoo_40_380/zoo_40_380-lower.txt
Number of groups: 20
Flow 2: {1 3 0} {3 23 0} 
Flow 28: {2 20 0} {20 10 0} {10 30 0} 
Flow 49: {3 12 0} {12 32 0} 
Flow 65: {4 3 0} {3 14 0} {14 9 0} {9 29 0} 
Flow 94: {5 20 0} {20 19 0} {19 39 0} 
Flow 109: {6 20 0} {20 14 0} {14 15 0} {15 35 0} 
Flow 116: {7 20 0} {20 2 0} {2 22 0} 
Flow 143: {8 5 0} {5 3 0} {3 11 0} {11 31 0} 
Flow 171: {9 14 0} {14 20 0} {20 40 0} 
Flow 188: {10 20 0} {20 18 0} {18 38 0} 
Flow 194: {11 3 0} {3 4 0} {4 24 0} 
Flow 221: {12 3 0} {3 5 0} {5 13 0} {13 33 0} 
Flow 233: {13 5 0} {5 25 0} 
Flow 263: {14 17 0} {17 37 0} 
Flow 281: {15 14 0} {14 16 0} {16 36 0} 
Flow 299: {16 14 0} {14 34 0} 
Flow 305: {17 14 0} {14 3 0} {3 1 0} {1 21 0} 
Flow 331: {18 20 0} {20 5 0} {5 8 0} {8 28 0} 
Flow 348: {19 20 0} {20 6 0} {6 26 0} 
Flow 368: {20 7 0} {7 27 0} 
Time taken running everything: 1 seconds
