networks/zoo_40_380/zoo_40_380-lower.sol
<?xml version = "1.0" encoding="UTF-8" standalone="yes"?>
<CPLEXSolution version="1.2">
 <header
   problemName="networks/zoo_40_380/zoo_40_380-lower.lp"
   solutionName="incumbent"
   solutionIndex="-1"
   objectiveValue="20"
   solutionTypeValue="3"
   solutionTypeString="primal"
   solutionStatusValue="101"
   solutionStatusString="integer optimal solution"
   solutionMethodString="mip"
   primalFeasible="1"
   dualFeasible="1"
   MIPNodes="0"
   MIPIterations="0"
   writeLevel="3"/>
 <quality
   epInt="1.0000000000000001e-05"
   epRHS="9.9999999999999995e-07"
   maxIntInfeas="0"
   maxPrimalInfeas="0"
   maxX="1"
   maxSlack="1"/>
 <variables>
  <variable name="Y(1,2)" index="1" value="1"/>
  <variable name="Y(2,3)" index="42" value="1"/>
  <variable name="Y(3,4)" index="83" value="1"/>
  <variable name="Y(4,5)" index="124" value="1"/>
  <variable name="Y(5,6)" index="165" value="1"/>
  <variable name="Y(6,7)" index="206" value="1"/>
  <variable name="Y(7,8)" index="247" value="1"/>
  <variable name="Y(8,9)" index="288" value="1"/>
  <variable name="Y(9,10)" index="329" value="1"/>
  <variable name="Y(10,11)" index="370" value="1"/>
  <variable name="Y(11,12)" index="411" value="1"/>
  <variable name="Y(12,13)" index="452" value="1"/>
  <variable name="Y(13,14)" index="493" value="1"/>
  <variable name="Y(14,15)" index="534" value="1"/>
  <variable name="Y(15,16)" index="575" value="1"/>
  <variable name="Y(16,17)" index="616" value="1"/>
  <variable name="Y(17,18)" index="657" value="1"/>
  <variable name="Y(18,19)" index="698" value="1"/>
  <variable name="Y(19,20)" index="739" value="1"/>
  <variable name="Y(20,1)" index="760" value="1"/>
  <variable name="X(1,3,1)" index="15200" value="1"/>
  <variable name="X(1,21,20)" index="15599" value="1"/>
  <variable name="X(2,20,20)" index="15979" value="1"/>
  <variable name="X(2,22,1)" index="16340" value="1"/>
  <variable name="X(3,1,20)" index="16739" value="1"/>
  <variable name="X(3,4,3)" index="17102" value="1"/>
  <variable name="X(3,5,1)" index="17480" value="1"/>
  <variable name="X(3,11,10)" index="17869" value="1"/>
  <variable name="X(3,12,11)" index="18250" value="1"/>
  <variable name="X(3,14,8)" index="18627" value="1"/>
  <variable name="X(3,23,2)" index="19001" value="1"/>
  <variable name="X(4,3,58)" index="19437" value="1"/>
  <variable name="X(4,24,3)" index="19762" value="1"/>
  <variable name="X(5,3,20)" index="20159" value="1"/>
  <variable name="X(5,8,7)" index="20526" value="1"/>
  <variable name="X(5,13,12)" index="20911" value="1"/>
  <variable name="X(5,20,1)" index="21280" value="1"/>
  <variable name="X(5,25,4)" index="21663" value="1"/>
  <variable name="X(6,20,96)" index="22135" value="1"/>
  <variable name="X(6,26,5)" index="22424" value="1"/>
  <variable name="X(7,20,115)" index="22914" value="1"/>
  <variable name="X(7,27,6)" index="23185" value="1"/>
  <variable name="X(8,5,134)" index="23693" value="1"/>
  <variable name="X(8,28,7)" index="23946" value="1"/>
  <variable name="X(9,14,153)" index="24472" value="1"/>
  <variable name="X(9,29,8)" index="24707" value="1"/>
  <variable name="X(10,20,172)" index="25251" value="1"/>
  <variable name="X(10,30,9)" index="25468" value="1"/>
  <variable name="X(11,3,191)" index="26030" value="1"/>
  <variable name="X(11,31,10)" index="26229" value="1"/>
  <variable name="X(12,3,210)" index="26809" value="1"/>
  <variable name="X(12,32,11)" index="26990" value="1"/>
  <variable name="X(13,5,229)" index="27588" value="1"/>
  <variable name="X(13,33,12)" index="27751" value="1"/>
  <variable name="X(14,3,153)" index="28272" value="1"/>
  <variable name="X(14,9,8)" index="28507" value="1"/>
  <variable name="X(14,15,14)" index="28893" value="1"/>
  <variable name="X(14,16,15)" index="29274" value="1"/>
  <variable name="X(14,17,16)" index="29655" value="1"/>
  <variable name="X(14,20,154)" index="30173" value="1"/>
  <variable name="X(14,34,13)" index="30412" value="1"/>
  <variable name="X(15,14,267)" index="31046" value="1"/>
  <variable name="X(15,35,14)" index="31173" value="1"/>
  <variable name="X(16,14,286)" index="31825" value="1"/>
  <variable name="X(16,36,15)" index="31934" value="1"/>
  <variable name="X(17,14,305)" index="32604" value="1"/>
  <variable name="X(17,37,16)" index="32695" value="1"/>
  <variable name="X(18,20,324)" index="33383" value="1"/>
  <variable name="X(18,38,17)" index="33456" value="1"/>
  <variable name="X(19,20,343)" index="34162" value="1"/>
  <variable name="X(19,39,18)" index="34217" value="1"/>
  <variable name="X(20,2,1)" index="34580" value="1"/>
  <variable name="X(20,5,20)" index="34979" value="1"/>
  <variable name="X(20,6,5)" index="35344" value="1"/>
  <variable name="X(20,7,6)" index="35725" value="1"/>
  <variable name="X(20,10,9)" index="36108" value="1"/>
  <variable name="X(20,14,27)" index="36506" value="1"/>
  <variable name="X(20,18,17)" index="36876" value="1"/>
  <variable name="X(20,19,18)" index="37257" value="1"/>
  <variable name="X(20,40,19)" index="37638" value="1"/>
 </variables>
</CPLEXSolution>
